(set-logic QF_LRA)
(declare-fun T1 () Real )
(declare-fun T2 () Real )
(declare-fun T3 () Real )
(declare-fun T4 () Real )
(declare-fun T5 () Real )
(declare-fun T6 () Real )
(declare-fun Z () Real )
(assert ( and 
(or ( <= ( + T1 27 ) T2 ) ( <= ( + T2 89 ) T1 ) )
(or ( <= ( + T1 117 )  ( + T2 89 ) ) ( <= ( + T2 147 )( + T1 27 ) ) )
(or ( <= ( + T1 192 )  ( + T2 147 ) ) ( <= ( + T2 152 )( + T1 117 ) ) )
(or ( <= ( + T1 213 )  ( + T2 152 ) ) ( <= ( + T2 191 )( + T1 192 ) ) )
(or ( <= ( + T1 27 ) T3 ) ( <= ( + T3 89 ) T1 ) )
(or ( <= ( + T1 117 )  ( + T3 89 ) ) ( <= ( + T3 178 )( + T1 27 ) ) )
(or ( <= ( + T1 192 )  ( + T3 178 ) ) ( <= ( + T3 223 )( + T1 117 ) ) )
(or ( <= ( + T1 213 )  ( + T3 223 ) ) ( <= ( + T3 225 )( + T1 192 ) ) )
(or ( <= ( + T1 27 ) T4 ) ( <= ( + T4 98 ) T1 ) )
(or ( <= ( + T1 117 )  ( + T4 98 ) ) ( <= ( + T4 102 )( + T1 27 ) ) )
(or ( <= ( + T1 192 )  ( + T4 102 ) ) ( <= ( + T4 188 )( + T1 117 ) ) )
(or ( <= ( + T1 213 )  ( + T4 188 ) ) ( <= ( + T4 265 )( + T1 192 ) ) )
(or ( <= ( + T1 27 ) T5 ) ( <= ( + T5 94 ) T1 ) )
(or ( <= ( + T1 117 )  ( + T5 94 ) ) ( <= ( + T5 134 )( + T1 27 ) ) )
(or ( <= ( + T1 192 )  ( + T5 134 ) ) ( <= ( + T5 169 )( + T1 117 ) ) )
(or ( <= ( + T1 213 )  ( + T5 169 ) ) ( <= ( + T5 171 )( + T1 192 ) ) )
(or ( <= ( + T1 27 ) T6 ) ( <= ( + T6 72 ) T1 ) )
(or ( <= ( + T1 117 )  ( + T6 72 ) ) ( <= ( + T6 142 )( + T1 27 ) ) )
(or ( <= ( + T1 192 )  ( + T6 142 ) ) ( <= ( + T6 170 )( + T1 117 ) ) )
(or ( <= ( + T1 213 )  ( + T6 170 ) ) ( <= ( + T6 269 )( + T1 192 ) ) )
(or ( <= ( + T2 89 ) T3 ) ( <= ( + T3 89 ) T2 ) )
(or ( <= ( + T2 147 )  ( + T3 89 ) ) ( <= ( + T3 178 )( + T2 89 ) ) )
(or ( <= ( + T2 152 )  ( + T3 178 ) ) ( <= ( + T3 223 )( + T2 147 ) ) )
(or ( <= ( + T2 191 )  ( + T3 223 ) ) ( <= ( + T3 225 )( + T2 152 ) ) )
(or ( <= ( + T2 89 ) T4 ) ( <= ( + T4 98 ) T2 ) )
(or ( <= ( + T2 147 )  ( + T4 98 ) ) ( <= ( + T4 102 )( + T2 89 ) ) )
(or ( <= ( + T2 152 )  ( + T4 102 ) ) ( <= ( + T4 188 )( + T2 147 ) ) )
(or ( <= ( + T2 191 )  ( + T4 188 ) ) ( <= ( + T4 265 )( + T2 152 ) ) )
(or ( <= ( + T2 89 ) T5 ) ( <= ( + T5 94 ) T2 ) )
(or ( <= ( + T2 147 )  ( + T5 94 ) ) ( <= ( + T5 134 )( + T2 89 ) ) )
(or ( <= ( + T2 152 )  ( + T5 134 ) ) ( <= ( + T5 169 )( + T2 147 ) ) )
(or ( <= ( + T2 191 )  ( + T5 169 ) ) ( <= ( + T5 171 )( + T2 152 ) ) )
(or ( <= ( + T2 89 ) T6 ) ( <= ( + T6 72 ) T2 ) )
(or ( <= ( + T2 147 )  ( + T6 72 ) ) ( <= ( + T6 142 )( + T2 89 ) ) )
(or ( <= ( + T2 152 )  ( + T6 142 ) ) ( <= ( + T6 170 )( + T2 147 ) ) )
(or ( <= ( + T2 191 )  ( + T6 170 ) ) ( <= ( + T6 269 )( + T2 152 ) ) )
(or ( <= ( + T3 89 ) T4 ) ( <= ( + T4 98 ) T3 ) )
(or ( <= ( + T3 178 )  ( + T4 98 ) ) ( <= ( + T4 102 )( + T3 89 ) ) )
(or ( <= ( + T3 223 )  ( + T4 102 ) ) ( <= ( + T4 188 )( + T3 178 ) ) )
(or ( <= ( + T3 225 )  ( + T4 188 ) ) ( <= ( + T4 265 )( + T3 223 ) ) )
(or ( <= ( + T3 89 ) T5 ) ( <= ( + T5 94 ) T3 ) )
(or ( <= ( + T3 178 )  ( + T5 94 ) ) ( <= ( + T5 134 )( + T3 89 ) ) )
(or ( <= ( + T3 223 )  ( + T5 134 ) ) ( <= ( + T5 169 )( + T3 178 ) ) )
(or ( <= ( + T3 225 )  ( + T5 169 ) ) ( <= ( + T5 171 )( + T3 223 ) ) )
(or ( <= ( + T3 89 ) T6 ) ( <= ( + T6 72 ) T3 ) )
(or ( <= ( + T3 178 )  ( + T6 72 ) ) ( <= ( + T6 142 )( + T3 89 ) ) )
(or ( <= ( + T3 223 )  ( + T6 142 ) ) ( <= ( + T6 170 )( + T3 178 ) ) )
(or ( <= ( + T3 225 )  ( + T6 170 ) ) ( <= ( + T6 269 )( + T3 223 ) ) )
(or ( <= ( + T4 98 ) T5 ) ( <= ( + T5 94 ) T4 ) )
(or ( <= ( + T4 102 )  ( + T5 94 ) ) ( <= ( + T5 134 )( + T4 98 ) ) )
(or ( <= ( + T4 188 )  ( + T5 134 ) ) ( <= ( + T5 169 )( + T4 102 ) ) )
(or ( <= ( + T4 265 )  ( + T5 169 ) ) ( <= ( + T5 171 )( + T4 188 ) ) )
(or ( <= ( + T4 98 ) T6 ) ( <= ( + T6 72 ) T4 ) )
(or ( <= ( + T4 102 )  ( + T6 72 ) ) ( <= ( + T6 142 )( + T4 98 ) ) )
(or ( <= ( + T4 188 )  ( + T6 142 ) ) ( <= ( + T6 170 )( + T4 102 ) ) )
(or ( <= ( + T4 265 )  ( + T6 170 ) ) ( <= ( + T6 269 )( + T4 188 ) ) )
(or ( <= ( + T5 94 ) T6 ) ( <= ( + T6 72 ) T5 ) )
(or ( <= ( + T5 134 )  ( + T6 72 ) ) ( <= ( + T6 142 )( + T5 94 ) ) )
(or ( <= ( + T5 169 )  ( + T6 142 ) ) ( <= ( + T6 170 )( + T5 134 ) ) )
(or ( <= ( + T5 171 )  ( + T6 170 ) ) ( <= ( + T6 269 )( + T5 169 ) ) )
( <= ( + T1 213 ) Z)
( <= ( + T2 191 ) Z)
( <= ( + T3 225 ) Z)
( <= ( + T4 265 ) Z)
( <= ( + T5 171 ) Z)
( <= ( + T6 269 ) Z)
( >= T1 0 )
( >= T2 0 )
( >= T3 0 )
( >= T4 0 )
( >= T5 0 )
( >= T6 0 )
) )
(minimize Z)
(check-sat)